p edge 200 1990
p 1 3
p 1 4
p 1 5
p 1 59
p 1 69
p 1 74
p 1 76
p 1 90
p 1 92
p 1 98
p 1 109
p 1 114
p 1 124
p 1 136
p 1 138
p 1 146
p 1 148
p 1 152
p 1 153
p 1 170
p 1 186
p 1 193
p 2 25
p 2 30
p 2 31
p 2 34
p 2 39
p 2 45
p 2 62
p 2 72
p 2 75
p 2 86
p 2 93
p 2 131
p 2 145
p 2 151
p 2 165
p 2 168
p 2 178
p 2 181
p 2 182
p 2 196
p 2 198
p 2 200
p 3 9
p 3 15
p 3 22
p 3 41
p 3 45
p 3 51
p 3 61
p 3 63
p 3 67
p 3 73
p 3 75
p 3 80
p 3 82
p 3 101
p 3 123
p 3 131
p 3 135
p 3 149
p 3 155
p 3 164
p 3 172
p 3 174
p 3 178
p 3 179
p 3 182
p 3 190
p 3 198
p 3 199
p 4 34
p 4 41
p 4 89
p 4 118
p 4 124
p 4 152
p 4 156
p 4 178
p 4 180
p 4 183
p 4 191
p 4 199
p 4 200
p 5 28
p 5 45
p 5 56
p 5 57
p 5 74
p 5 82
p 5 97
p 5 144
p 5 146
p 5 162
p 5 174
p 5 178
p 5 180
p 5 197
p 5 200
p 6 15
p 6 29
p 6 35
p 6 44
p 6 50
p 6 53
p 6 55
p 6 83
p 6 103
p 6 117
p 6 135
p 6 152
p 6 160
p 6 164
p 6 171
p 6 181
p 6 191
p 7 9
p 7 19
p 7 57
p 7 62
p 7 75
p 7 79
p 7 103
p 7 105
p 7 115
p 7 126
p 7 129
p 7 142
p 7 146
p 7 149
p 7 155
p 7 160
p 7 161
p 7 162
p 7 168
p 7 174
p 7 177
p 7 181
p 7 190
p 8 9
p 8 13
p 8 17
p 8 22
p 8 25
p 8 34
p 8 42
p 8 44
p 8 61
p 8 67
p 8 86
p 8 104
p 8 105
p 8 122
p 8 144
p 8 154
p 8 160
p 8 169
p 8 172
p 8 177
p 8 182
p 8 183
p 8 184
p 8 189
p 9 10
p 9 11
p 9 16
p 9 23
p 9 38
p 9 41
p 9 43
p 9 88
p 9 89
p 9 106
p 9 107
p 9 121
p 9 127
p 9 133
p 9 166
p 9 168
p 9 176
p 9 181
p 9 186
p 9 195
p 10 13
p 10 32
p 10 34
p 10 39
p 10 42
p 10 47
p 10 72
p 10 78
p 10 82
p 10 93
p 10 118
p 10 119
p 10 140
p 10 142
p 10 147
p 10 158
p 10 166
p 10 183
p 10 189
p 10 192
p 10 197
p 10 199
p 11 42
p 11 47
p 11 48
p 11 57
p 11 58
p 11 77
p 11 78
p 11 118
p 11 142
p 11 143
p 11 149
p 11 161
p 11 165
p 11 167
p 11 190
p 11 197
p 12 29
p 12 34
p 12 39
p 12 44
p 12 47
p 12 50
p 12 66
p 12 67
p 12 72
p 12 84
p 12 118
p 12 123
p 12 137
p 12 139
p 12 142
p 12 146
p 12 162
p 12 181
p 12 183
p 12 192
p 13 26
p 13 38
p 13 40
p 13 42
p 13 59
p 13 69
p 13 88
p 13 92
p 13 97
p 13 102
p 13 106
p 13 108
p 13 125
p 13 128
p 13 131
p 13 138
p 13 194
p 13 195
p 13 198
p 14 24
p 14 34
p 14 39
p 14 50
p 14 61
p 14 65
p 14 75
p 14 86
p 14 96
p 14 119
p 14 156
p 14 169
p 15 35
p 15 44
p 15 54
p 15 60
p 15 84
p 15 97
p 15 120
p 15 128
p 15 130
p 15 139
p 15 142
p 15 145
p 15 157
p 15 166
p 16 21
p 16 46
p 16 50
p 16 57
p 16 74
p 16 84
p 16 118
p 16 119
p 16 156
p 16 180
p 16 196
p 17 22
p 17 25
p 17 31
p 17 45
p 17 48
p 17 53
p 17 61
p 17 65
p 17 72
p 17 93
p 17 118
p 17 122
p 17 123
p 17 126
p 17 146
p 17 147
p 17 151
p 17 158
p 17 162
p 17 190
p 17 198
p 18 22
p 18 25
p 18 41
p 18 42
p 18 44
p 18 72
p 18 73
p 18 74
p 18 106
p 18 136
p 18 142
p 18 146
p 18 149
p 18 152
p 18 155
p 18 156
p 18 167
p 18 169
p 18 174
p 18 180
p 18 187
p 19 20
p 19 21
p 19 31
p 19 35
p 19 45
p 19 60
p 19 61
p 19 66
p 19 69
p 19 87
p 19 89
p 19 90
p 19 95
p 19 107
p 19 108
p 19 110
p 19 127
p 19 143
p 19 150
p 19 176
p 19 194
p 20 22
p 20 31
p 20 41
p 20 47
p 20 59
p 20 65
p 20 75
p 20 105
p 20 119
p 20 121
p 20 129
p 20 171
p 21 25
p 21 29
p 21 45
p 21 46
p 21 51
p 21 53
p 21 62
p 21 63
p 21 72
p 21 77
p 21 78
p 21 105
p 21 131
p 21 140
p 21 156
p 21 161
p 21 172
p 21 174
p 21 178
p 21 180
p 21 181
p 21 190
p 21 196
p 22 26
p 22 33
p 22 37
p 22 54
p 22 58
p 22 63
p 22 64
p 22 77
p 22 79
p 22 83
p 22 87
p 22 88
p 22 99
p 22 124
p 22 133
p 22 145
p 22 153
p 22 157
p 22 182
p 22 186
p 22 195
p 23 25
p 23 28
p 23 44
p 23 47
p 23 53
p 23 67
p 23 77
p 23 78
p 23 85
p 23 103
p 23 111
p 23 119
p 23 126
p 23 132
p 23 137
p 23 147
p 23 158
p 23 183
p 23 187
p 23 193
p 23 194
p 24 29
p 24 44
p 24 77
p 24 96
p 24 103
p 24 117
p 24 118
p 24 119
p 24 126
p 24 132
p 24 151
p 24 162
p 24 164
p 24 180
p 24 181
p 24 192
p 24 197
p 25 26
p 25 36
p 25 39
p 25 50
p 25 51
p 25 69
p 25 79
p 25 88
p 25 90
p 25 102
p 25 106
p 25 110
p 25 153
p 25 195
p 26 29
p 26 31
p 26 41
p 26 50
p 26 61
p 26 62
p 26 63
p 26 77
p 26 90
p 26 142
p 26 151
p 26 162
p 26 164
p 26 171
p 26 184
p 26 185
p 26 198
p 27 29
p 27 34
p 27 43
p 27 55
p 27 62
p 27 73
p 27 99
p 27 105
p 27 123
p 27 131
p 27 132
p 27 149
p 27 162
p 27 165
p 27 167
p 27 169
p 27 172
p 27 177
p 28 32
p 28 37
p 28 38
p 28 43
p 28 46
p 28 49
p 28 54
p 28 58
p 28 66
p 28 70
p 28 71
p 28 80
p 28 83
p 28 89
p 28 116
p 28 122
p 28 123
p 28 133
p 28 141
p 28 159
p 28 173
p 28 186
p 28 189
p 28 195
p 29 33
p 29 37
p 29 46
p 29 49
p 29 52
p 29 83
p 29 88
p 29 98
p 29 104
p 29 106
p 29 109
p 29 120
p 29 122
p 29 124
p 29 127
p 29 136
p 29 143
p 29 148
p 29 157
p 29 166
p 29 170
p 29 173
p 29 174
p 29 180
p 30 31
p 30 34
p 30 45
p 30 61
p 30 72
p 30 78
p 30 84
p 30 104
p 30 111
p 30 117
p 30 123
p 30 145
p 30 147
p 30 158
p 30 172
p 30 183
p 30 189
p 30 191
p 30 198
p 31 35
p 31 37
p 31 40
p 31 45
p 31 58
p 31 59
p 31 61
p 31 83
p 31 92
p 31 112
p 31 120
p 31 127
p 31 133
p 31 159
p 31 188
p 32 45
p 32 48
p 32 50
p 32 62
p 32 75
p 32 78
p 32 82
p 32 119
p 32 123
p 32 126
p 32 135
p 32 137
p 32 144
p 32 155
p 32 161
p 32 164
p 32 166
p 32 168
p 32 172
p 33 34
p 33 50
p 33 62
p 33 70
p 33 72
p 33 77
p 33 104
p 33 134
p 33 142
p 33 146
p 33 156
p 33 164
p 33 180
p 33 191
p 33 192
p 33 198
p 34 35
p 34 43
p 34 79
p 34 83
p 34 91
p 34 112
p 34 114
p 34 120
p 34 137
p 34 143
p 34 163
p 34 167
p 34 170
p 34 184
p 34 186
p 35 45
p 35 51
p 35 72
p 35 83
p 35 118
p 35 140
p 35 144
p 35 168
p 35 172
p 35 177
p 35 182
p 35 183
p 35 196
p 36 42
p 36 47
p 36 65
p 36 103
p 36 116
p 36 117
p 36 118
p 36 144
p 36 149
p 36 159
p 37 39
p 37 42
p 37 44
p 37 48
p 37 53
p 37 62
p 37 65
p 37 71
p 37 84
p 37 85
p 37 93
p 37 101
p 37 132
p 37 147
p 37 155
p 37 156
p 37 175
p 37 183
p 37 184
p 37 187
p 37 189
p 38 42
p 38 55
p 38 61
p 38 62
p 38 63
p 38 65
p 38 72
p 38 77
p 38 93
p 38 102
p 38 104
p 38 132
p 38 151
p 38 157
p 38 180
p 38 184
p 38 189
p 38 190
p 38 198
p 39 50
p 39 51
p 39 58
p 39 113
p 39 115
p 39 124
p 39 133
p 39 138
p 39 145
p 39 176
p 39 186
p 39 188
p 39 195
p 40 44
p 40 50
p 40 53
p 40 61
p 40 69
p 40 72
p 40 86
p 40 101
p 40 111
p 40 123
p 40 135
p 40 152
p 40 177
p 40 182
p 40 190
p 40 195
p 41 46
p 41 52
p 41 56
p 41 71
p 41 81
p 41 88
p 41 168
p 41 170
p 41 181
p 41 193
p 42 49
p 42 52
p 42 56
p 42 59
p 42 69
p 42 83
p 42 88
p 42 89
p 42 92
p 42 94
p 42 97
p 42 98
p 42 100
p 42 127
p 42 131
p 42 136
p 42 163
p 42 195
p 42 198
p 43 47
p 43 48
p 43 50
p 43 63
p 43 65
p 43 72
p 43 86
p 43 99
p 43 105
p 43 111
p 43 123
p 43 129
p 43 131
p 43 147
p 43 149
p 43 182
p 43 192
p 44 46
p 44 64
p 44 84
p 44 90
p 44 97
p 44 99
p 44 109
p 44 134
p 44 136
p 44 142
p 44 150
p 44 159
p 44 170
p 44 173
p 44 175
p 44 188
p 44 194
p 45 61
p 45 79
p 45 99
p 45 127
p 45 138
p 45 143
p 45 148
p 45 150
p 46 48
p 46 55
p 46 65
p 46 72
p 46 77
p 46 85
p 46 104
p 46 111
p 46 119
p 46 123
p 46 147
p 46 162
p 46 172
p 46 191
p 46 192
p 47 58
p 47 64
p 47 71
p 47 80
p 47 85
p 47 88
p 47 92
p 47 94
p 47 98
p 47 105
p 47 120
p 47 121
p 47 122
p 47 136
p 47 163
p 47 200
p 48 54
p 48 60
p 48 66
p 48 75
p 48 106
p 48 157
p 48 158
p 48 159
p 48 163
p 48 186
p 48 187
p 49 51
p 49 63
p 49 81
p 49 84
p 49 104
p 49 111
p 49 117
p 49 132
p 49 133
p 49 135
p 49 141
p 49 152
p 49 158
p 49 161
p 49 162
p 49 165
p 49 168
p 49 182
p 49 184
p 50 51
p 50 59
p 50 70
p 50 88
p 50 89
p 50 94
p 50 98
p 50 113
p 50 114
p 50 138
p 50 159
p 50 179
p 50 194
p 51 68
p 51 69
p 51 70
p 51 100
p 51 109
p 51 110
p 51 121
p 51 122
p 51 128
p 51 143
p 51 145
p 51 157
p 51 166
p 51 188
p 51 194
p 52 62
p 52 72
p 52 93
p 52 95
p 52 104
p 52 108
p 52 119
p 52 123
p 52 132
p 52 142
p 52 151
p 52 164
p 52 171
p 52 172
p 52 178
p 52 181
p 52 192
p 53 68
p 53 79
p 53 81
p 53 83
p 53 87
p 53 92
p 53 93
p 53 97
p 53 99
p 53 122
p 53 134
p 53 151
p 53 163
p 53 166
p 53 169
p 53 186
p 53 194
p 54 73
p 54 98
p 54 101
p 54 127
p 54 132
p 54 135
p 54 142
p 54 155
p 54 161
p 54 164
p 54 178
p 54 189
p 54 197
p 55 56
p 55 57
p 55 59
p 55 92
p 55 94
p 55 98
p 55 122
p 55 125
p 55 128
p 55 143
p 55 145
p 55 153
p 55 163
p 55 166
p 55 172
p 55 175
p 55 188
p 55 195
p 56 61
p 56 72
p 56 77
p 56 78
p 56 82
p 56 97
p 56 103
p 56 104
p 56 126
p 56 154
p 56 158
p 56 162
p 56 190
p 56 191
p 56 199
p 56 200
p 57 64
p 57 68
p 57 80
p 57 87
p 57 107
p 57 110
p 57 122
p 57 124
p 57 128
p 57 143
p 57 148
p 57 150
p 57 166
p 57 172
p 58 111
p 58 132
p 58 140
p 58 143
p 58 151
p 58 154
p 58 156
p 58 180
p 58 184
p 59 61
p 59 62
p 59 77
p 59 85
p 59 101
p 59 103
p 59 117
p 59 121
p 59 151
p 59 191
p 59 197
p 60 61
p 60 75
p 60 76
p 60 85
p 60 103
p 60 110
p 60 111
p 60 141
p 60 144
p 60 154
p 60 160
p 60 161
p 60 165
p 60 174
p 60 177
p 60 183
p 60 184
p 60 198
p 61 76
p 61 79
p 61 81
p 61 91
p 61 92
p 61 97
p 61 108
p 61 110
p 61 112
p 61 115
p 61 122
p 61 157
p 61 166
p 61 176
p 62 76
p 62 78
p 62 98
p 62 99
p 62 106
p 62 114
p 62 121
p 62 124
p 62 134
p 62 153
p 62 164
p 62 170
p 62 176
p 62 177
p 63 68
p 63 77
p 63 90
p 63 92
p 63 109
p 63 113
p 63 115
p 63 122
p 63 139
p 63 148
p 63 170
p 63 182
p 63 186
p 63 188
p 64 67
p 64 78
p 64 101
p 64 105
p 64 118
p 64 138
p 64 147
p 64 155
p 64 158
p 64 167
p 64 169
p 64 173
p 64 187
p 64 192
p 64 197
p 65 83
p 65 87
p 65 94
p 65 99
p 65 100
p 65 110
p 65 112
p 65 125
p 65 133
p 65 135
p 65 162
p 65 171
p 65 173
p 65 175
p 65 185
p 66 74
p 66 78
p 66 111
p 66 135
p 66 139
p 66 142
p 66 149
p 66 165
p 66 182
p 66 197
p 66 198
p 66 199
p 67 102
p 67 103
p 67 114
p 67 125
p 67 132
p 67 133
p 67 136
p 67 143
p 67 160
p 67 163
p 67 175
p 67 176
p 67 179
p 67 188
p 67 193
p 68 72
p 68 73
p 68 74
p 68 88
p 68 120
p 68 160
p 68 165
p 68 174
p 68 191
p 68 198
p 69 73
p 69 74
p 69 103
p 69 104
p 69 147
p 69 156
p 69 160
p 69 182
p 69 191
p 69 195
p 70 73
p 70 75
p 70 78
p 70 82
p 70 101
p 70 117
p 70 118
p 70 129
p 70 132
p 70 134
p 70 147
p 70 149
p 70 167
p 70 168
p 70 192
p 71 75
p 71 93
p 71 101
p 71 118
p 71 132
p 71 141
p 71 144
p 71 152
p 71 158
p 71 161
p 71 175
p 71 177
p 71 182
p 71 187
p 71 192
p 72 79
p 72 88
p 72 99
p 72 101
p 72 109
p 72 115
p 72 120
p 72 124
p 72 129
p 72 153
p 72 175
p 72 179
p 72 183
p 73 80
p 73 89
p 73 95
p 73 113
p 73 119
p 73 120
p 73 122
p 73 124
p 73 126
p 73 150
p 73 176
p 73 188
p 73 191
p 73 193
p 73 194
p 74 80
p 74 87
p 74 91
p 74 96
p 74 97
p 74 109
p 74 113
p 74 115
p 74 120
p 74 130
p 74 134
p 74 146
p 74 152
p 74 188
p 74 194
p 75 89
p 75 97
p 75 102
p 75 121
p 75 122
p 75 128
p 75 139
p 75 153
p 75 157
p 75 158
p 75 185
p 75 187
p 75 194
p 76 78
p 76 93
p 76 110
p 76 140
p 76 156
p 76 158
p 76 162
p 76 164
p 76 172
p 76 180
p 76 199
p 77 80
p 77 88
p 77 94
p 77 99
p 77 108
p 77 109
p 77 121
p 77 124
p 77 150
p 77 153
p 77 170
p 77 182
p 77 195
p 78 88
p 78 91
p 78 94
p 78 95
p 78 124
p 78 130
p 78 139
p 78 164
p 78 177
p 78 185
p 79 82
p 79 101
p 79 115
p 79 137
p 79 140
p 79 152
p 79 183
p 79 187
p 79 191
p 80 118
p 80 146
p 80 151
p 80 174
p 80 177
p 80 179
p 80 196
p 81 84
p 81 86
p 81 118
p 81 133
p 81 155
p 81 160
p 81 161
p 81 164
p 81 169
p 81 174
p 81 178
p 81 180
p 81 182
p 82 92
p 82 96
p 82 116
p 82 125
p 82 133
p 82 138
p 82 140
p 82 161
p 82 188
p 83 117
p 83 123
p 83 155
p 83 158
p 83 178
p 83 191
p 83 192
p 84 90
p 84 112
p 84 122
p 84 124
p 84 130
p 84 134
p 84 136
p 84 138
p 84 142
p 84 157
p 84 170
p 84 186
p 85 89
p 85 92
p 85 94
p 85 95
p 85 102
p 85 105
p 85 121
p 85 130
p 85 133
p 85 136
p 85 139
p 85 145
p 85 170
p 85 173
p 85 175
p 85 176
p 85 200
p 86 91
p 86 96
p 86 97
p 86 106
p 86 107
p 86 108
p 86 109
p 86 110
p 86 120
p 86 127
p 86 128
p 86 139
p 86 145
p 86 148
p 86 166
p 86 173
p 86 176
p 86 190
p 86 192
p 86 199
p 87 94
p 87 103
p 87 104
p 87 118
p 87 148
p 87 160
p 87 164
p 87 167
p 87 169
p 87 181
p 87 189
p 87 191
p 88 117
p 88 119
p 88 120
p 88 126
p 88 151
p 88 154
p 88 172
p 88 181
p 88 184
p 89 101
p 89 105
p 89 124
p 89 126
p 89 131
p 89 135
p 89 137
p 89 151
p 89 156
p 89 165
p 89 174
p 89 189
p 89 198
p 89 199
p 90 93
p 90 119
p 90 129
p 90 167
p 90 177
p 90 180
p 90 182
p 90 183
p 90 185
p 90 192
p 91 128
p 91 140
p 91 155
p 91 165
p 91 167
p 91 168
p 91 169
p 91 172
p 91 180
p 91 184
p 91 186
p 91 192
p 92 104
p 92 109
p 92 123
p 92 125
p 92 142
p 92 164
p 92 171
p 92 183
p 92 187
p 92 189
p 92 191
p 92 192
p 93 94
p 93 97
p 93 99
p 93 109
p 93 133
p 93 151
p 93 169
p 93 170
p 93 185
p 93 193
p 94 101
p 94 103
p 94 104
p 94 118
p 94 142
p 94 147
p 94 148
p 94 151
p 94 162
p 94 171
p 94 172
p 94 180
p 94 189
p 94 191
p 94 197
p 95 108
p 95 111
p 95 123
p 95 132
p 95 152
p 95 158
p 95 165
p 95 171
p 95 184
p 95 198
p 96 104
p 96 126
p 96 129
p 96 151
p 96 160
p 96 162
p 96 167
p 96 169
p 96 182
p 96 190
p 96 199
p 97 104
p 97 123
p 97 126
p 97 131
p 97 141
p 97 144
p 97 151
p 97 161
p 97 183
p 97 184
p 97 191
p 97 196
p 98 101
p 98 111
p 98 127
p 98 132
p 98 152
p 98 155
p 98 164
p 98 171
p 98 181
p 98 191
p 98 197
p 98 198
p 98 200
p 99 101
p 99 103
p 99 104
p 99 152
p 99 189
p 99 191
p 99 192
p 100 103
p 100 104
p 100 119
p 100 141
p 100 144
p 100 151
p 100 153
p 100 160
p 100 162
p 100 170
p 100 174
p 100 183
p 101 115
p 101 129
p 101 138
p 101 175
p 101 183
p 101 195
p 102 104
p 102 105
p 102 118
p 102 141
p 102 157
p 102 160
p 102 169
p 102 177
p 103 121
p 103 125
p 103 132
p 103 159
p 103 160
p 103 170
p 103 173
p 103 176
p 103 188
p 104 112
p 104 115
p 104 130
p 104 133
p 104 138
p 104 143
p 104 159
p 104 170
p 104 174
p 104 180
p 104 186
p 105 121
p 105 148
p 105 153
p 105 188
p 105 200
p 106 136
p 106 146
p 106 151
p 106 160
p 106 165
p 106 167
p 106 168
p 106 169
p 106 174
p 106 199
p 106 200
p 107 112
p 107 132
p 107 144
p 107 160
p 107 167
p 107 169
p 107 176
p 107 183
p 107 187
p 107 190
p 108 129
p 108 131
p 108 135
p 108 161
p 108 164
p 108 167
p 108 190
p 109 118
p 109 125
p 109 135
p 109 160
p 109 161
p 109 164
p 109 168
p 109 190
p 109 200
p 110 129
p 110 140
p 110 141
p 110 142
p 110 183
p 110 191
p 111 114
p 111 128
p 111 133
p 111 150
p 111 156
p 111 163
p 111 165
p 111 166
p 111 185
p 111 188
p 111 193
p 112 119
p 112 142
p 112 154
p 112 171
p 112 176
p 112 187
p 112 190
p 112 197
p 112 198
p 113 114
p 113 131
p 113 135
p 113 147
p 113 158
p 113 160
p 113 188
p 113 190
p 113 192
p 113 196
p 113 197
p 113 199
p 114 117
p 114 126
p 114 147
p 114 155
p 114 156
p 114 158
p 114 184
p 114 188
p 115 132
p 115 147
p 115 149
p 115 155
p 115 174
p 115 198
p 116 141
p 116 152
p 116 154
p 116 158
p 116 159
p 116 160
p 116 164
p 116 174
p 116 180
p 116 183
p 117 118
p 117 120
p 117 121
p 117 127
p 117 138
p 117 149
p 117 170
p 117 195
p 118 136
p 118 138
p 118 139
p 118 148
p 118 149
p 119 125
p 119 126
p 119 133
p 119 138
p 119 163
p 119 191
p 119 195
p 120 129
p 120 135
p 120 146
p 120 149
p 120 151
p 120 156
p 120 160
p 120 178
p 120 182
p 120 189
p 121 123
p 121 131
p 121 132
p 121 164
p 121 169
p 121 180
p 121 187
p 122 141
p 122 144
p 122 149
p 122 151
p 122 156
p 122 160
p 122 167
p 122 168
p 122 172
p 122 198
p 123 128
p 123 130
p 123 141
p 123 148
p 123 189
p 123 195
p 124 141
p 124 144
p 124 146
p 124 149
p 124 155
p 124 158
p 124 160
p 124 167
p 124 169
p 124 172
p 124 174
p 124 200
p 125 147
p 125 181
p 125 196
p 126 166
p 126 191
p 126 193
p 127 141
p 127 144
p 127 149
p 127 171
p 127 174
p 127 177
p 127 180
p 127 182
p 127 198
p 127 199
p 128 129
p 128 135
p 128 156
p 128 158
p 128 181
p 128 182
p 128 186
p 128 190
p 129 130
p 129 150
p 129 166
p 129 183
p 129 188
p 130 150
p 130 152
p 130 154
p 130 161
p 130 163
p 130 167
p 130 168
p 130 172
p 130 182
p 130 187
p 130 192
p 130 197
p 130 198
p 130 200
p 131 145
p 131 153
p 131 173
p 131 194
p 131 198
p 132 134
p 132 136
p 132 139
p 132 160
p 132 166
p 132 170
p 132 179
p 132 186
p 132 188
p 133 140
p 133 190
p 134 141
p 134 161
p 134 164
p 134 165
p 134 171
p 134 177
p 134 181
p 134 197
p 135 148
p 135 150
p 135 153
p 135 162
p 135 171
p 135 188
p 136 137
p 136 140
p 136 151
p 136 156
p 136 162
p 136 172
p 136 187
p 136 197
p 137 143
p 137 167
p 137 179
p 137 184
p 137 185
p 138 146
p 138 151
p 138 152
p 138 154
p 138 162
p 138 172
p 138 173
p 138 178
p 138 181
p 138 183
p 138 187
p 138 189
p 138 190
p 138 197
p 139 149
p 139 156
p 139 161
p 139 190
p 140 148
p 140 161
p 140 163
p 140 166
p 140 173
p 140 193
p 140 195
p 141 148
p 141 166
p 141 176
p 141 189
p 142 159
p 142 179
p 142 188
p 143 144
p 143 152
p 143 169
p 143 182
p 143 196
p 144 148
p 144 154
p 144 166
p 144 178
p 145 162
p 146 152
p 146 186
p 146 188
p 147 155
p 147 170
p 147 188
p 147 196
p 147 197
p 148 155
p 148 167
p 148 174
p 148 184
p 148 196
p 149 153
p 149 157
p 149 166
p 149 188
p 149 193
p 149 194
p 150 151
p 150 158
p 150 163
p 150 164
p 150 165
p 150 169
p 150 174
p 150 184
p 150 190
p 150 192
p 151 159
p 151 163
p 151 169
p 151 170
p 151 188
p 151 195
p 152 163
p 152 179
p 152 186
p 153 162
p 153 167
p 153 170
p 153 183
p 153 187
p 153 197
p 154 163
p 154 170
p 154 176
p 154 178
p 155 157
p 155 163
p 155 170
p 155 186
p 155 195
p 155 196
p 155 197
p 156 159
p 156 163
p 156 165
p 156 166
p 156 176
p 156 195
p 157 160
p 157 182
p 157 191
p 157 192
p 158 163
p 158 170
p 158 186
p 158 187
p 158 195
p 159 181
p 159 183
p 159 189
p 160 173
p 160 185
p 160 193
p 161 175
p 162 163
p 162 171
p 162 175
p 163 183
p 163 197
p 163 198
p 163 200
p 164 177
p 164 186
p 165 188
p 166 174
p 166 181
p 166 182
p 166 196
p 167 176
p 167 184
p 167 185
p 168 181
p 170 181
p 170 183
p 170 197
p 171 193
p 172 185
p 172 186
p 172 188
p 173 178
p 173 191
p 174 175
p 174 180
p 174 185
p 174 188
p 174 194
p 175 184
p 175 190
p 175 196
p 175 198
p 176 177
p 176 200
p 177 185
p 177 194
p 179 190
p 179 199
p 180 186
p 180 195
p 181 186
p 181 193
p 181 194
p 183 185
p 183 188
p 183 193
p 184 188
p 185 187
p 185 191
p 185 196
p 186 187
p 186 189
p 186 191
p 186 199
p 186 200
p 188 192
p 188 196
p 189 194
p 190 192
p 190 199
p 192 199
p 193 194
p 193 197
p 195 198
p 196 197
